c ind 96 95 94 93 92 91 90 89 88 87 86 85 84 83 82 81 80 79 78 77 76 75 74 73 72 71 70 69 68 67 66 65  0
c ind 33 32 31 30 29 28 27 26 25 24 23 22 21 20 19 18 17 16 15 14 13 12 11 10 9 8 7 6 5 4 3 2  0
c ind 159 158 157 156 155 154 153 152 151 150 149 148 147 146 145 144 143 142 141 140 139 138 137 136 135 134 133 132 131 130 129 128  0
p cnf 190 219
1 0
-2 0
-3 0
-4 0
-5 0
-6 0
-7 0
-8 0
-9 0
-10 0
-11 0
-12 0
-13 0
-14 0
-15 0
-16 0
-17 0
-18 0
-19 0
-20 0
-21 0
-22 0
-23 0
-24 0
-25 0
-26 0
-27 0
-28 0
-29 0
-30 0
-31 0
-32 0
-33 0
34 0
35 0
36 0
37 0
38 0
39 0
40 0
41 0
42 0
43 0
44 0
45 0
46 0
47 0
48 0
49 0
50 0
51 0
52 0
53 0
54 0
55 0
56 0
57 0
58 0
59 0
60 0
61 0
62 0
63 0
64 0
-65 0
-66 0
-67 0
-68 0
-69 0
-70 0
-71 0
-72 0
-73 0
-74 0
-75 0
-76 0
-77 0
-78 0
-79 0
-80 0
-81 0
-82 0
-83 0
-84 0
-85 0
-86 0
-87 0
-88 0
-89 0
-90 0
-91 0
-92 0
-93 0
-94 0
-95 0
-96 0
97 0
98 0
99 0
100 0
101 0
102 0
103 0
104 0
105 0
106 0
107 0
108 0
109 0
110 0
111 0
112 0
113 0
114 0
115 0
116 0
117 0
118 0
119 0
120 0
121 0
122 0
123 0
124 0
125 0
126 0
127 0
-190 0
-128 -160 0
128 129 160 0
-129 -160 0
-130 -161 0
130 -160 161 0
-131 -162 0
131 -161 162 0
-132 -163 0
132 -162 163 0
-133 -164 0
133 -163 164 0
-134 -165 0
134 -164 165 0
-135 -166 0
135 -165 166 0
-136 -167 0
136 -166 167 0
-137 -168 0
137 -167 168 0
-138 -169 0
138 -168 169 0
-139 -170 0
139 -169 170 0
-140 -171 0
140 -170 171 0
-141 -172 0
141 -171 172 0
-142 -173 0
142 -172 173 0
-143 -174 0
143 -173 174 0
-144 -175 0
144 -174 175 0
-145 -176 0
145 -175 176 0
-146 -177 0
146 -176 177 0
-147 -178 0
147 -177 178 0
-148 -179 0
148 -178 179 0
-149 -180 0
149 -179 180 0
-150 -181 0
150 -180 181 0
-151 -182 0
151 -181 182 0
-152 -183 0
152 -182 183 0
-153 -184 0
153 -183 184 0
-154 -185 0
154 -184 185 0
-155 -186 0
155 -185 186 0
-156 -187 0
156 -186 187 0
-157 -188 0
157 -187 188 0
-158 -189 0
158 -188 189 0
159 -189 0
160 -161 0
161 -162 0
162 -163 0
163 -164 0
164 -165 0
165 -166 0
166 -167 0
167 -168 0
168 -169 0
169 -170 0
170 -171 0
171 -172 0
172 -173 0
173 -174 0
174 -175 0
175 -176 0
176 -177 0
177 -178 0
178 -179 0
179 -180 0
180 -181 0
181 -182 0
182 -183 0
183 -184 0
184 -185 0
185 -186 0
186 -187 0
187 -188 0
188 -189 0
